(set-info :smt-lib-version 2.6)
(set-info :category "crafted")
(set-logic QF_FF)
(define-sort FF0 () (_ FiniteField 52435875175126190479447740508185965837690552500527637822603658699938581184513))
(declare-fun b () Bool)
(declare-fun a () Bool)
(declare-fun out () FF0)
(declare-fun _46 () FF0)
(declare-fun _28 () FF0)
(declare-fun _45 () FF0)
(declare-fun _38 () FF0)
(declare-fun _43 () FF0)
(declare-fun _42 () FF0)
(declare-fun _27 () FF0)
(declare-fun _22 () FF0)
(declare-fun _19 () FF0)
(declare-fun _37 () FF0)
(declare-fun _0 () FF0)
(declare-fun _36 () FF0)
(declare-fun _34 () FF0)
(declare-fun _33 () FF0)
(declare-fun _17 () FF0)
(declare-fun _16 () FF0)
(declare-fun _25 () FF0)
(declare-fun _26 () FF0)
(declare-fun _6 () FF0)
(declare-fun _5 () FF0)
(declare-fun _20 () FF0)
(declare-fun _24 () FF0)
(declare-fun _12 () FF0)
(declare-fun _1 () FF0)
(declare-fun _11 () FF0)
(declare-fun _10 () FF0)
(declare-fun _9 () FF0)
(declare-fun _8 () FF0)
(assert 
  (let ((let0 b))
  (let ((let1 a))
  (let ((let2 (ite let0 let1 let0)))
  (let ((let3 (and let0 let2 let1 let1 let1 let0)))
  (let ((let4 (ite let2 let2 let3)))
  (let ((let5 (=> let4 let3)))
  (let ((let6 (= let3 let4)))
  (let ((let7 (=> let6 let5)))
  (let ((let8 (not let5)))
  (let ((let9 (=> let8 let7)))
  (let ((let10 (or let9 let4)))
  (let ((let11 (and let6 let2)))
  (let ((let12 (=> let11 let7)))
  (let ((let13 (= let12 let10)))
  (let ((let14 (ite let12 let8 let5)))
  (let ((let15 (or let4 let7 let14 let1)))
  (let ((let16 (ite let7 let5 let12)))
  (let ((let17 (and let16 let15 let13)))
  (let ((let18 out))
  (let ((let19 (as ff1 FF0)))
  (let ((let20 (= let19 let18)))
  (let ((let21 (= let20 let17)))
  (let ((let22 (as ff0 FF0)))
  (let ((let23 (= let22 let18)))
  (let ((let24 (or let20 let23)))
  (let ((let25 (and let24 let21)))
  (let ((let26 _46))
  (let ((let27 (= let26 let18)))
  (let ((let28 (as ff52435875175126190479447740508185965837690552500527637822603658699938581184512 FF0)))
  (let ((let29 _28))
  (let ((let30 (ff.mul let29 let28)))
  (let ((let31 (ff.add let30 let19)))
  (let ((let32 _45))
  (let ((let33 (ff.mul let32 let31)))
  (let ((let34 (= let33 let26)))
  (let ((let35 _38))
  (let ((let36 _43))
  (let ((let37 _42))
  (let ((let38 (ff.add let37 let36)))
  (let ((let39 (ff.mul let38 let35)))
  (let ((let40 (= let39 let32)))
  (let ((let41 _27))
  (let ((let42 _22))
  (let ((let43 (ff.mul let42 let28)))
  (let ((let44 (ff.add let43 let19)))
  (let ((let45 (ff.mul let44 let41)))
  (let ((let46 (= let45 let36)))
  (let ((let47 _19))
  (let ((let48 (ff.mul let42 let47)))
  (let ((let49 (= let48 let37)))
  (let ((let50 (ff.mul let35 let28)))
  (let ((let51 _37))
  (let ((let52 _0))
  (let ((let53 (ff.add let52 let51 let50)))
  (let ((let54 (ff.mul let51 let52)))
  (let ((let55 (= let54 let53)))
  (let ((let56 (ff.mul let51 let28)))
  (let ((let57 _36))
  (let ((let58 _34))
  (let ((let59 _33))
  (let ((let60 (ff.add let59 let58 let57 let56)))
  (let ((let61 (ff.add let59 let58)))
  (let ((let62 (ff.mul let57 let61)))
  (let ((let63 (= let62 let60)))
  (let ((let64 (ff.mul let57 let28)))
  (let ((let65 _17))
  (let ((let66 _16))
  (let ((let67 (ff.add let66 let65 let42 let64)))
  (let ((let68 (ff.add let66 let65)))
  (let ((let69 (ff.mul let68 let42)))
  (let ((let70 (= let69 let67)))
  (let ((let71 (ff.mul let41 let28)))
  (let ((let72 (ff.add let71 let19)))
  (let ((let73 (ff.mul let72 let47)))
  (let ((let74 (= let73 let58)))
  (let ((let75 (ff.mul let47 let28)))
  (let ((let76 (ff.add let75 let19)))
  (let ((let77 (ff.mul let41 let76)))
  (let ((let78 (= let77 let59)))
  (let ((let79 _25))
  (let ((let80 (ff.mul let79 let28)))
  (let ((let81 (ff.add let80 let41)))
  (let ((let82 (ff.mul let81 let81)))
  (let ((let83 (= let82 let29)))
  (let ((let84 _26))
  (let ((let85 (ff.mul let84 let28)))
  (let ((let86 (ff.add let42 let85 let71 let19)))
  (let ((let87 (ff.add let85 let19)))
  (let ((let88 (ff.mul let87 let42)))
  (let ((let89 (= let88 let86)))
  (let ((let90 _6))
  (let ((let91 _5))
  (let ((let92 (ff.add let91 let90)))
  (let ((let93 _20))
  (let ((let94 (ff.mul let93 let28)))
  (let ((let95 (ff.add let94 let19)))
  (let ((let96 (ff.mul let95 let92)))
  (let ((let97 (= let96 let84)))
  (let ((let98 _24))
  (let ((let99 (ff.add let66 let65 let98 let80)))
  (let ((let100 (ff.mul let98 let68)))
  (let ((let101 (= let100 let99)))
  (let ((let102 (ff.mul let98 let28)))
  (let ((let103 (ff.add let47 let42 let102)))
  (let ((let104 (ff.mul let47 let42)))
  (let ((let105 (= let104 let103)))
  (let ((let106 (ff.add let47 let93 let43)))
  (let ((let107 (ff.mul let93 let47)))
  (let ((let108 (= let107 let106)))
  (let ((let109 (ff.mul let65 let28)))
  (let ((let110 (ff.mul let66 let28)))
  (let ((let111 _12))
  (let ((let112 (ff.add let111 let110 let109)))
  (let ((let113 (ff.mul let112 let112)))
  (let ((let114 (= let113 let93)))
  (let ((let115 (ff.add let111 let110 let109 let75 let19)))
  (let ((let116 (ff.add let110 let109 let19)))
  (let ((let117 (ff.mul let116 let111)))
  (let ((let118 (= let117 let115)))
  (let ((let119 (ff.mul let90 let28)))
  (let ((let120 (ff.mul let91 let28)))
  (let ((let121 (ff.add let120 let119 let19)))
  (let ((let122 (ff.mul let121 let111)))
  (let ((let123 (= let122 let65)))
  (let ((let124 (ff.mul let92 let92)))
  (let ((let125 (= let124 let66)))
  (let ((let126 _1))
  (let ((let127 _11))
  (let ((let128 (ff.mul let127 let126)))
  (let ((let129 (= let128 let111)))
  (let ((let130 _10))
  (let ((let131 (ff.mul let130 let52)))
  (let ((let132 (= let131 let127)))
  (let ((let133 _9))
  (let ((let134 (ff.mul let133 let52)))
  (let ((let135 (= let134 let130)))
  (let ((let136 _8))
  (let ((let137 (ff.mul let136 let52)))
  (let ((let138 (= let137 let133)))
  (let ((let139 (ff.mul let126 let92)))
  (let ((let140 (= let139 let136)))
  (let ((let141 (ff.mul let126 let28)))
  (let ((let142 (ff.add let141 let19)))
  (let ((let143 (ff.mul let142 let126)))
  (let ((let144 (= let143 let90)))
  (let ((let145 (ff.mul let126 let52)))
  (let ((let146 (= let145 let91)))
  (let ((let147 (ff.mul let126 let126)))
  (let ((let148 (= let147 let126)))
  (let ((let149 (ff.mul let52 let52)))
  (let ((let150 (= let149 let52)))
  (let ((let151 (and let150 let148 let146 let144 let140 let138 let135 let132 let129 let125 let123 let118 let114 let108 let105 let101 let97 let89 let83 let78 let74 let70 let63 let55 let49 let46 let40 let34 let27)))
  (let ((let152 (ite let0 let19 let22)))
  (let ((let153 (= let126 let152)))
  (let ((let154 (ite let1 let19 let22)))
  (let ((let155 (= let52 let154)))
  (let ((let156 (and let155 let153)))
  (let ((let157 (and let156 let151)))
  (let ((let158 (=> let157 let25)))
  (let ((let159 (not let158)))
  let159
))))))))))))))))))))))))))))))))))))))))))))))))))))))))))))))))))))))))))))))))))))))))))))))))))))))))))))))))))))))))))))))))))))))))))))))))))))))))))))))))
)
(check-sat)
